(set-logic ALL)
(set-option :produce-models true)
(declare-fun sym205 () String)
(declare-fun sym404 () String)
(declare-fun sym528 () String)
(declare-fun sym606 () String)
(declare-fun sym440 () String)
(declare-fun sym484 () String)
(declare-fun sym562 () String)
(declare-fun sym289 () String)
(declare-fun sym686 () String)
(declare-fun sym642 () String)
(declare-fun sym323 () String)
(declare-fun sym160 () String)
(declare-fun sym414 () String)
(declare-fun sym338 () String)
(declare-fun sym175 () String)
(declare-fun sym494 () String)
(declare-fun sym450 () String)
(declare-fun sym374 () String)
(declare-fun sym254 () String)
(declare-fun sym299 () String)
(declare-fun sym696 () String)
(declare-fun sym652 () String)
(declare-fun sym135 () String)
(declare-fun sym576 () String)
(declare-fun sym215 () String)
(declare-fun sym348 () String)
(declare-fun sym20 () String)
(declare-fun sym504 () String)
(declare-fun sym384 () String)
(declare-fun sym264 () String)
(declare-fun sym662 () String)
(declare-fun sym586 () String)
(declare-fun sym542 () String)
(declare-fun sym225 () String)
(declare-fun sym622 () String)
(declare-fun sym185 () String)
(declare-fun sym460 () String)
(declare-fun sym239 () String)
(declare-fun sym518 () String)
(declare-fun sym430 () String)
(declare-fun sym596 () String)
(declare-fun sym552 () String)
(declare-fun sym113 () String)
(declare-fun sym279 () String)
(declare-fun sym676 () String)
(declare-fun sym313 () String)
(declare-fun sym632 () String)
(declare-fun sym358 () String)
(declare-fun sym150 () String)
(declare-fun sym470 () String)
(declare-fun sym195 () String)
(declare-fun sym394 () String)
(define-fun Alphabet () RegLan 
	(re.* (re.union (str.to_re "A") (str.to_re "B") (str.to_re "C") (str.to_re "D") (str.to_re "E") (str.to_re "F") (str.to_re "G") (str.to_re "H") (str.to_re "I") (str.to_re "J") (str.to_re "K") (str.to_re "L") (str.to_re "M") (str.to_re "N") (str.to_re "O") (str.to_re "P") (str.to_re "Q") (str.to_re "R") (str.to_re "S") (str.to_re "T") (str.to_re "U") (str.to_re "V") (str.to_re "W") (str.to_re "X") (str.to_re "Y") (str.to_re "Z") (str.to_re "a") (str.to_re "b") (str.to_re "c") (str.to_re "d") (str.to_re "e") (str.to_re "f") (str.to_re "g") (str.to_re "h") (str.to_re "i") (str.to_re "j") (str.to_re "k") (str.to_re "l") (str.to_re "m") (str.to_re "n") (str.to_re "o") (str.to_re "p") (str.to_re "q") (str.to_re "r") (str.to_re "s") (str.to_re "t") (str.to_re "u") (str.to_re "v") (str.to_re "w") (str.to_re "x") (str.to_re "y") (str.to_re "z") ))
)

(assert (str.in_re sym394 Alphabet))
(assert (str.in_re sym195 Alphabet))
(assert (str.in_re sym470 Alphabet))
(assert (str.in_re sym150 Alphabet))
(assert (str.in_re sym358 Alphabet))
(assert (str.in_re sym632 Alphabet))
(assert (str.in_re sym313 Alphabet))
(assert (str.in_re sym676 Alphabet))
(assert (str.in_re sym279 Alphabet))
(assert (str.in_re sym113 Alphabet))
(assert (str.in_re sym552 Alphabet))
(assert (str.in_re sym596 Alphabet))
(assert (str.in_re sym430 Alphabet))
(assert (str.in_re sym518 Alphabet))
(assert (str.in_re sym239 Alphabet))
(assert (str.in_re sym460 Alphabet))
(assert (str.in_re sym185 Alphabet))
(assert (str.in_re sym622 Alphabet))
(assert (str.in_re sym225 Alphabet))
(assert (str.in_re sym542 Alphabet))
(assert (str.in_re sym586 Alphabet))
(assert (str.in_re sym662 Alphabet))
(assert (str.in_re sym264 Alphabet))
(assert (str.in_re sym384 Alphabet))
(assert (str.in_re sym504 Alphabet))
(assert (str.in_re sym20 Alphabet))
(assert (str.in_re sym348 Alphabet))
(assert (str.in_re sym215 Alphabet))
(assert (str.in_re sym576 Alphabet))
(assert (str.in_re sym135 Alphabet))
(assert (str.in_re sym652 Alphabet))
(assert (str.in_re sym696 Alphabet))
(assert (str.in_re sym299 Alphabet))
(assert (str.in_re sym254 Alphabet))
(assert (str.in_re sym374 Alphabet))
(assert (str.in_re sym450 Alphabet))
(assert (str.in_re sym494 Alphabet))
(assert (str.in_re sym175 Alphabet))
(assert (str.in_re sym338 Alphabet))
(assert (str.in_re sym414 Alphabet))
(assert (str.in_re sym160 Alphabet))
(assert (str.in_re sym323 Alphabet))
(assert (str.in_re sym642 Alphabet))
(assert (str.in_re sym686 Alphabet))
(assert (str.in_re sym289 Alphabet))
(assert (str.in_re sym562 Alphabet))
(assert (str.in_re sym484 Alphabet))
(assert (str.in_re sym440 Alphabet))
(assert (str.in_re sym606 Alphabet))
(assert (str.in_re sym528 Alphabet))
(assert (str.in_re sym404 Alphabet))
(assert (str.in_re sym205 Alphabet))
(assert (not (= (str.to_lower sym175 )(str.to_lower "name" ))))
(assert (not (= (str.to_lower sym404 )(str.to_lower "length" ))))
(assert (not (= (str.to_lower sym686 )(str.to_lower "description" ))))
(assert (not (= (str.to_lower sym279 )(str.to_lower "name" ))))
(assert (not (= (str.to_lower sym348 )(str.to_lower "description" ))))
(assert (not (= (str.to_lower sym596 )(str.to_lower "type" ))))
(assert (not (= (str.to_lower sym622 )(str.to_lower "name" ))))
(assert (not (= (str.to_lower sym552 )(str.to_lower "description" ))))
(assert (not (= (str.to_lower sym696 )(str.to_lower "field" ))))
(assert (not (= (str.to_lower sym652 )(str.to_lower "length" ))))
(assert (not (= (str.to_lower sym676 )(str.to_lower "name" ))))
(assert (= (str.to_lower sym225 )(str.to_lower "table" )))
(assert (not (= (str.to_lower sym494 )(str.to_lower "description" ))))
(assert (not (= (str.to_lower sym185 )(str.to_lower "description" ))))
(assert (not (= (str.to_lower sym20 )"sql" )))
(assert (not (= (str.to_lower sym215 )(str.to_lower "description" ))))
(assert (not (= (str.to_lower sym642 )(str.to_lower "type" ))))
(assert (= (str.to_lower sym264 )(str.to_lower "description" )))
(assert (not (= (str.to_lower sym576 )(str.to_lower "name" ))))
(assert (not (= (str.to_lower sym586 )(str.to_lower "description" ))))
(assert (not (= (str.to_lower sym440 )(str.to_lower "description" ))))
(assert (= (str.to_lower sym160 )(str.to_lower "description" )))
(assert (not (= (str.to_lower sym313 )(str.to_lower "name" ))))
(assert (not (= (str.to_lower sym338 )(str.to_lower "name" ))))
(assert (not (= (str.to_lower sym394 )(str.to_lower "type" ))))
(assert (= (str.to_lower sym528 )(str.to_lower "description" )))
(assert (not (= (str.to_lower sym450 )(str.to_lower "type" ))))
(assert (= (str.to_lower sym470 )(str.to_lower "option" )))
(assert (not (= (str.to_lower sym484 )(str.to_lower "name" ))))
(assert (not (= (str.to_lower sym254 )(str.to_lower "name" ))))
(assert (not (= (str.to_lower sym632 )(str.to_lower "description" ))))
(assert (= (str.to_lower sym20 )"html" ))
(assert (= (str.to_lower sym323 )(str.to_lower "description" )))
(assert (= (str.to_lower sym239 )(str.to_lower "name" )))
(assert (= (str.to_lower sym606 )(str.to_lower "length" )))
(assert (= (str.to_lower sym562 )(str.to_lower "type" )))
(assert (not (= (str.to_lower sym384 )(str.to_lower "description" ))))
(assert (= (str.to_lower sym414 )(str.to_lower "option" )))
(assert (= (str.to_lower sym358 )(str.to_lower "type" )))
(assert (= (str.to_lower sym662 )(str.to_lower "option" )))
(assert (not (= (str.to_lower sym289 )(str.to_lower "description" ))))
(assert (not (= (str.to_lower sym205 )(str.to_lower "name" ))))
(assert (not (= (str.to_lower sym430 )(str.to_lower "name" ))))
(assert (= (str.to_lower sym113 )(str.to_lower "database" )))
(assert (not (= (str.to_lower sym518 )(str.to_lower "name" ))))
(assert (not (= (str.to_lower sym460 )(str.to_lower "length" ))))
(assert (= (str.to_lower sym299 )(str.to_lower "field" )))
(assert (not (= (str.to_lower sym542 )(str.to_lower "name" ))))
(assert (not (= (str.to_lower sym195 )(str.to_lower "table" ))))
(assert (not (= (str.to_lower sym150 )(str.to_lower "name" ))))
(assert (= (str.to_lower sym135 )(str.to_lower "name" )))
(assert (= (str.to_lower sym504 )(str.to_lower "field" )))
(assert (not (= (str.to_lower sym374 )(str.to_lower "name" ))))
(check-sat)
(get-model)
(exit)
